data;
param n:=100;
param w:=1 134 2 275 3 395 4 12 5 132 6 178 7 -94 8 388 9 294 10 -47 11 -49 12 41 13 424 14 -160 15 124 16 434 17 -406 18 -328 19 -34 20 -73 21 -346 22 -72 23 -519 24 -24 25 -382 26 -291 27 -298 28 -509 29 -178 30 -175 31 -494 32 -97 33 352 34 -347 35 386 36 201 37 50 38 133 39 -47 40 261 41 -334 42 282 43 -435 44 12 45 -290 46 378 47 -411 48 -280 49 -450 50 25 51 122 52 383 53 -43 54 -12 55 -325 56 136 57 -217 58 -325 59 26 60 306 61 180 62 334 63 -134 64 166 65 -236 66 -139 67 247 68 -475 69 154 70 -518 71 416 72 -140 73 88 74 270 75 452 76 223 77 440 78 412 79 -294 80 217 81 148 82 -97 83 -187 84 12 85 84 86 210 87 15 88 257 89 -467 90 330 91 362 92 307 93 430 94 -220 95 -420 96 -421 97 107 98 119 99 -69 100 45;
